; benchmark generated from python API
(set-info :status unknown)
(declare-fun x_days () Int)
(declare-fun y_days () Int)
(assert
 (>= x_days (- 36584)))
(assert
 (<= x_days 36829))
(assert
 (>= y_days (- 36584)))
(assert
 (<= y_days 36829))
(assert
 (= x_days 7275))
(assert
 (= y_days 6910))
(assert
 (let (($x29 (or (and (= (mod 2000 4) 0) (and (distinct (mod 2000 100) 0) true)) (= (mod 2000 400) 0))))
 (let ((?x36 (ite (= 3 2) (ite $x29 31 31) (ite (= 3 1) (ite $x29 0 0) 0))))
 (let ((?x40 (ite $x29 60 59)))
 (let ((?x41 (ite (= 3 3) ?x40 ?x36)))
 (let ((?x46 (ite (= 3 4) (ite $x29 91 90) ?x41)))
 (let ((?x52 (ite (= 3 5) (ite $x29 121 120) ?x46)))
 (let ((?x58 (ite (= 3 6) (ite $x29 152 151) ?x52)))
 (let ((?x64 (ite (= 3 7) (ite $x29 182 181) ?x58)))
 (let ((?x70 (ite (= 3 8) (ite $x29 213 212) ?x64)))
 (let ((?x76 (ite (= 3 9) (ite $x29 244 243) ?x70)))
 (let ((?x82 (ite (= 3 10) (ite $x29 274 273) ?x76)))
 (let ((?x88 (ite (= 3 11) (ite $x29 305 304) ?x82)))
 (let ((?x16 (- (+ (* 365 (- 2000 1)) (div (- 2000 1) 4)) (div (- 2000 1) 100))))
 (let ((?x95 (+ (+ ?x16 (div (- 2000 1) 400)) (ite (= 3 12) (ite $x29 335 334) ?x88))))
 (let ((?x97 (+ ?x95 (- 1 1))))
 (let ((?x2643 (mod 0 146097)))
 (let ((?x809 (+ x_days ?x97)))
 (let ((?x2856 (mod ?x809 146097)))
 (let ((?x2527 (div ?x2856 36524)))
 (let ((?x177 (ite (<= 4 ?x2527) 3 ?x2527)))
 (let ((?x732 (- ?x2856 (* ?x177 36524))))
 (let ((?x516 (mod ?x732 1461)))
 (let ((?x497 (div ?x516 365)))
 (let ((?x384 (ite (<= 4 ?x497) 3 ?x497)))
 (let ((?x792 (+ (+ (* (div ?x809 146097) 400) (* ?x177 100)) (* (div ?x732 1461) 4))))
 (let ((?x1068 (+ (+ ?x792 ?x384) 1)))
 (let (($x382 (or (and (= (mod ?x1068 4) 0) (and (distinct (mod ?x1068 100) 0) true)) (= (mod ?x1068 400) 0))))
 (let ((?x495 (- ?x516 (* ?x384 365))))
 (let ((?x270 (ite $x382 31 31)))
 (let (($x787 (>= ?x495 ?x270)))
 (let ((?x536 (ite $x787 (+ (- ?x495 ?x270) 1) (+ (- ?x495 (ite $x382 0 0)) 1))))
 (let ((?x586 (ite $x382 60 59)))
 (let (($x567 (>= ?x495 ?x586)))
 (let ((?x391 (ite $x382 91 90)))
 (let (($x523 (>= ?x495 ?x391)))
 (let ((?x622 (ite $x523 (+ (- ?x495 ?x391) 1) (ite $x567 (+ (- ?x495 ?x586) 1) ?x536))))
 (let ((?x402 (ite $x382 121 120)))
 (let (($x1875 (>= ?x495 ?x402)))
 (let ((?x742 (ite $x382 152 151)))
 (let (($x553 (>= ?x495 ?x742)))
 (let ((?x183 (ite $x553 (+ (- ?x495 ?x742) 1) (ite $x1875 (+ (- ?x495 ?x402) 1) ?x622))))
 (let ((?x311 (ite $x382 182 181)))
 (let (($x374 (>= ?x495 ?x311)))
 (let ((?x1460 (ite $x382 213 212)))
 (let (($x137 (>= ?x495 ?x1460)))
 (let ((?x230 (ite $x137 (+ (- ?x495 ?x1460) 1) (ite $x374 (+ (- ?x495 ?x311) 1) ?x183))))
 (let ((?x299 (ite $x382 244 243)))
 (let (($x829 (>= ?x495 ?x299)))
 (let ((?x825 (ite $x382 274 273)))
 (let (($x367 (>= ?x495 ?x825)))
 (let ((?x282 (ite $x367 (+ (- ?x495 ?x825) 1) (ite $x829 (+ (- ?x495 ?x299) 1) ?x230))))
 (let ((?x807 (ite $x382 305 304)))
 (let (($x850 (>= ?x495 ?x807)))
 (let ((?x466 (ite $x382 335 334)))
 (let (($x779 (>= ?x495 ?x466)))
 (let ((?x115 (ite $x779 (+ (- ?x495 ?x466) 1) (ite $x850 (+ (- ?x495 ?x807) 1) ?x282))))
 (let ((?x478 (+ (* 0 12) 1)))
 (let ((?x588 (ite $x1875 5 (ite $x523 4 (ite $x567 3 (ite $x787 2 1))))))
 (let ((?x522 (ite $x829 9 (ite $x137 8 (ite $x374 7 (ite $x553 6 ?x588))))))
 (let ((?x741 (- (+ (ite $x779 12 (ite $x850 11 (ite $x367 10 ?x522))) ?x478) 1)))
 (let ((?x333 (+ (mod ?x741 12) 1)))
 (let ((?x182 (ite (or (= ?x333 4) (= ?x333 6) (= ?x333 9) (= ?x333 11)) 30 31)))
 (let (($x697 (and (= (mod (+ ?x1068 (+ 0 (div ?x741 12))) 4) 0) (and (distinct (mod (+ ?x1068 (+ 0 (div ?x741 12))) 100) 0) true))))
 (let ((?x236 (ite (or $x697 (= (mod (+ ?x1068 (+ 0 (div ?x741 12))) 400) 0)) 29 28)))
 (let ((?x352 (ite (= ?x333 2) ?x236 ?x182)))
 (let ((?x469 (ite (> 1 ?x115) 1 (ite (> ?x115 ?x352) ?x352 ?x115))))
 (let ((?x390 (ite (> 1 ?x469) 1 (ite (> ?x469 ?x352) ?x352 ?x469))))
 (let ((?x2647 (* (div 0 146097) 400)))
 (let ((?x1055 (+ ?x1068 (+ 0 (div ?x741 12)))))
 (let ((?x1054 (+ ?x1055 ?x2647)))
 (let (($x210 (or (and (= (mod ?x1054 4) 0) (and (distinct (mod ?x1054 100) 0) true)) (= (mod ?x1054 400) 0))))
 (let ((?x689 (ite (= 2 ?x333) (ite $x210 31 31) (ite (= 1 ?x333) (ite $x210 0 0) 0))))
 (let ((?x103 (ite (= 4 ?x333) (ite $x210 91 90) (ite (= 3 ?x333) (ite $x210 60 59) ?x689))))
 (let ((?x199 (ite (= 6 ?x333) (ite $x210 152 151) (ite (= 5 ?x333) (ite $x210 121 120) ?x103))))
 (let ((?x253 (ite (= 8 ?x333) (ite $x210 213 212) (ite (= 7 ?x333) (ite $x210 182 181) ?x199))))
 (let ((?x446 (ite (= 10 ?x333) (ite $x210 274 273) (ite (= 9 ?x333) (ite $x210 244 243) ?x253))))
 (let ((?x707 (ite (= 12 ?x333) (ite $x210 335 334) (ite (= 11 ?x333) (ite $x210 305 304) ?x446))))
 (let ((?x173 (- (+ (* 365 (- ?x1054 1)) (div (- ?x1054 1) 4)) (div (- ?x1054 1) 100))))
 (let ((?x750 (- (+ (+ (+ ?x173 (div (- ?x1054 1) 400)) ?x707) (- ?x390 1)) ?x97)))
 (let ((?x751 (+ (+ ?x750 ?x2643) ?x97)))
 (let ((?x110 (mod ?x751 146097)))
 (let ((?x448 (div ?x110 36524)))
 (let ((?x409 (ite (<= 4 ?x448) 3 ?x448)))
 (let ((?x789 (- ?x110 (* ?x409 36524))))
 (let ((?x783 (mod ?x789 1461)))
 (let ((?x786 (div ?x783 365)))
 (let ((?x514 (ite (<= 4 ?x786) 3 ?x786)))
 (let ((?x544 (+ (+ (* (div ?x751 146097) 400) (* ?x409 100)) (* (div ?x789 1461) 4))))
 (let ((?x322 (+ (+ ?x544 ?x514) 1)))
 (let (($x797 (or (and (= (mod ?x322 4) 0) (and (distinct (mod ?x322 100) 0) true)) (= (mod ?x322 400) 0))))
 (let ((?x584 (- ?x783 (* ?x514 365))))
 (let ((?x788 (ite $x797 31 31)))
 (let (($x461 (>= ?x584 ?x788)))
 (let ((?x640 (ite $x461 (+ (- ?x584 ?x788) 1) (+ (- ?x584 (ite $x797 0 0)) 1))))
 (let ((?x808 (ite $x797 60 59)))
 (let (($x632 (>= ?x584 ?x808)))
 (let ((?x579 (ite $x797 91 90)))
 (let (($x135 (>= ?x584 ?x579)))
 (let ((?x223 (ite $x135 (+ (- ?x584 ?x579) 1) (ite $x632 (+ (- ?x584 ?x808) 1) ?x640))))
 (let ((?x869 (ite $x797 121 120)))
 (let (($x729 (>= ?x584 ?x869)))
 (let ((?x784 (ite $x797 152 151)))
 (let (($x589 (>= ?x584 ?x784)))
 (let ((?x180 (ite $x589 (+ (- ?x584 ?x784) 1) (ite $x729 (+ (- ?x584 ?x869) 1) ?x223))))
 (let ((?x802 (ite $x797 182 181)))
 (let (($x113 (>= ?x584 ?x802)))
 (let ((?x379 (ite $x797 213 212)))
 (let (($x744 (>= ?x584 ?x379)))
 (let ((?x534 (ite $x744 (+ (- ?x584 ?x379) 1) (ite $x113 (+ (- ?x584 ?x802) 1) ?x180))))
 (let ((?x112 (ite $x797 244 243)))
 (let (($x261 (>= ?x584 ?x112)))
 (let ((?x154 (ite $x797 274 273)))
 (let (($x2018 (>= ?x584 ?x154)))
 (let ((?x441 (ite $x2018 (+ (- ?x584 ?x154) 1) (ite $x261 (+ (- ?x584 ?x112) 1) ?x534))))
 (let ((?x275 (ite $x797 305 304)))
 (let (($x626 (>= ?x584 ?x275)))
 (let ((?x100 (ite $x797 335 334)))
 (let (($x674 (>= ?x584 ?x100)))
 (let ((?x479 (ite $x674 (+ (- ?x584 ?x100) 1) (ite $x626 (+ (- ?x584 ?x275) 1) ?x441))))
 (let (($x444 (= 0 0)))
 (let (($x146 (and (= (mod (ite $x444 ?x1055 ?x322) 4) 0) (and (distinct (mod (ite $x444 ?x1055 ?x322) 100) 0) true))))
 (let (($x484 (or $x146 (= (mod (ite $x444 ?x1055 ?x322) 400) 0))))
 (let ((?x547 (ite $x729 5 (ite $x135 4 (ite $x632 3 (ite $x461 2 1))))))
 (let ((?x240 (ite $x261 9 (ite $x744 8 (ite $x113 7 (ite $x589 6 ?x547))))))
 (let ((?x330 (ite $x444 ?x333 (ite $x674 12 (ite $x626 11 (ite $x2018 10 ?x240))))))
 (let ((?x768 (ite (= 2 ?x330) (ite $x484 31 31) (ite (= 1 ?x330) (ite $x484 0 0) 0))))
 (let ((?x593 (ite (= 4 ?x330) (ite $x484 91 90) (ite (= 3 ?x330) (ite $x484 60 59) ?x768))))
 (let ((?x502 (ite (= 6 ?x330) (ite $x484 152 151) (ite (= 5 ?x330) (ite $x484 121 120) ?x593))))
 (let ((?x125 (ite (= 8 ?x330) (ite $x484 213 212) (ite (= 7 ?x330) (ite $x484 182 181) ?x502))))
 (let ((?x225 (ite (= 10 ?x330) (ite $x484 274 273) (ite (= 9 ?x330) (ite $x484 244 243) ?x125))))
 (let ((?x1258 (ite (= 12 ?x330) (ite $x484 335 334) (ite (= 11 ?x330) (ite $x484 305 304) ?x225))))
 (let ((?x392 (+ (* 365 (- (ite $x444 ?x1055 ?x322) 1)) (div (- (ite $x444 ?x1055 ?x322) 1) 4))))
 (let ((?x153 (+ (- ?x392 (div (- (ite $x444 ?x1055 ?x322) 1) 100)) (div (- (ite $x444 ?x1055 ?x322) 1) 400))))
 (= (- (+ (+ ?x153 ?x1258) (- (ite $x444 ?x390 ?x479) 1)) ?x97) 7304)))))))))))))))))))))))))))))))))))))))))))))))))))))))))))))))))))))))))))))))))))))))))))))))))))))))))))))))))))))))))))))))))))))))
(assert
 (let (($x29 (or (and (= (mod 2000 4) 0) (and (distinct (mod 2000 100) 0) true)) (= (mod 2000 400) 0))))
(let ((?x36 (ite (= 3 2) (ite $x29 31 31) (ite (= 3 1) (ite $x29 0 0) 0))))
(let ((?x40 (ite $x29 60 59)))
(let ((?x41 (ite (= 3 3) ?x40 ?x36)))
(let ((?x46 (ite (= 3 4) (ite $x29 91 90) ?x41)))
(let ((?x52 (ite (= 3 5) (ite $x29 121 120) ?x46)))
(let ((?x58 (ite (= 3 6) (ite $x29 152 151) ?x52)))
(let ((?x64 (ite (= 3 7) (ite $x29 182 181) ?x58)))
(let ((?x70 (ite (= 3 8) (ite $x29 213 212) ?x64)))
(let ((?x76 (ite (= 3 9) (ite $x29 244 243) ?x70)))
(let ((?x82 (ite (= 3 10) (ite $x29 274 273) ?x76)))
(let ((?x88 (ite (= 3 11) (ite $x29 305 304) ?x82)))
(let ((?x16 (- (+ (* 365 (- 2000 1)) (div (- 2000 1) 4)) (div (- 2000 1) 100))))
(let ((?x95 (+ (+ ?x16 (div (- 2000 1) 400)) (ite (= 3 12) (ite $x29 335 334) ?x88))))
(let ((?x97 (+ ?x95 (- 1 1))))
(let ((?x2643 (mod 0 146097)))
(let ((?x2109 (+ y_days ?x97)))
(let ((?x2605 (mod ?x2109 146097)))
(let ((?x3135 (div ?x2605 36524)))
(let ((?x3325 (ite (<= 4 ?x3135) 3 ?x3135)))
(let ((?x735 (- ?x2605 (* ?x3325 36524))))
(let ((?x1414 (mod ?x735 1461)))
(let ((?x215 (div ?x1414 365)))
(let ((?x181 (ite (<= 4 ?x215) 3 ?x215)))
(let ((?x1017 (+ (+ (* (div ?x2109 146097) 400) (* ?x3325 100)) (* (div ?x735 1461) 4))))
(let ((?x3207 (+ (+ ?x1017 ?x181) 1)))
(let (($x3357 (or (and (= (mod ?x3207 4) 0) (and (distinct (mod ?x3207 100) 0) true)) (= (mod ?x3207 400) 0))))
(let ((?x1061 (- ?x1414 (* ?x181 365))))
(let ((?x1173 (ite $x3357 31 31)))
(let (($x281 (>= ?x1061 ?x1173)))
(let ((?x1974 (ite $x281 (+ (- ?x1061 ?x1173) 1) (+ (- ?x1061 (ite $x3357 0 0)) 1))))
(let ((?x755 (ite $x3357 60 59)))
(let (($x1030 (>= ?x1061 ?x755)))
(let ((?x614 (ite $x3357 91 90)))
(let (($x239 (>= ?x1061 ?x614)))
(let ((?x725 (ite $x239 (+ (- ?x1061 ?x614) 1) (ite $x1030 (+ (- ?x1061 ?x755) 1) ?x1974))))
(let ((?x3026 (ite $x3357 121 120)))
(let (($x636 (>= ?x1061 ?x3026)))
(let ((?x371 (ite $x3357 152 151)))
(let (($x616 (>= ?x1061 ?x371)))
(let ((?x406 (ite $x616 (+ (- ?x1061 ?x371) 1) (ite $x636 (+ (- ?x1061 ?x3026) 1) ?x725))))
(let ((?x507 (ite $x3357 182 181)))
(let (($x599 (>= ?x1061 ?x507)))
(let ((?x2934 (ite $x3357 213 212)))
(let (($x1318 (>= ?x1061 ?x2934)))
(let ((?x3266 (ite $x1318 (+ (- ?x1061 ?x2934) 1) (ite $x599 (+ (- ?x1061 ?x507) 1) ?x406))))
(let ((?x654 (ite $x3357 244 243)))
(let (($x185 (>= ?x1061 ?x654)))
(let ((?x2025 (ite $x3357 274 273)))
(let (($x174 (>= ?x1061 ?x2025)))
(let ((?x692 (ite $x174 (+ (- ?x1061 ?x2025) 1) (ite $x185 (+ (- ?x1061 ?x654) 1) ?x3266))))
(let ((?x1990 (ite $x3357 305 304)))
(let (($x1958 (>= ?x1061 ?x1990)))
(let ((?x2270 (ite $x3357 335 334)))
(let (($x988 (>= ?x1061 ?x2270)))
(let ((?x2853 (ite $x988 (+ (- ?x1061 ?x2270) 1) (ite $x1958 (+ (- ?x1061 ?x1990) 1) ?x692))))
(let ((?x478 (+ (* 0 12) 1)))
(let ((?x1171 (ite $x636 5 (ite $x239 4 (ite $x1030 3 (ite $x281 2 1))))))
(let ((?x105 (ite $x185 9 (ite $x1318 8 (ite $x599 7 (ite $x616 6 ?x1171))))))
(let ((?x370 (- (+ (ite $x988 12 (ite $x1958 11 (ite $x174 10 ?x105))) ?x478) 1)))
(let ((?x3069 (+ (mod ?x370 12) 1)))
(let ((?x785 (ite (or (= ?x3069 4) (= ?x3069 6) (= ?x3069 9) (= ?x3069 11)) 30 31)))
(let (($x1996 (and (= (mod (+ ?x3207 (+ 0 (div ?x370 12))) 4) 0) (and (distinct (mod (+ ?x3207 (+ 0 (div ?x370 12))) 100) 0) true))))
(let ((?x3060 (ite (or $x1996 (= (mod (+ ?x3207 (+ 0 (div ?x370 12))) 400) 0)) 29 28)))
(let ((?x1153 (ite (= ?x3069 2) ?x3060 ?x785)))
(let ((?x1256 (ite (> 1 ?x2853) 1 (ite (> ?x2853 ?x1153) ?x1153 ?x2853))))
(let ((?x2947 (ite (> 1 ?x1256) 1 (ite (> ?x1256 ?x1153) ?x1153 ?x1256))))
(let ((?x2647 (* (div 0 146097) 400)))
(let ((?x2731 (+ ?x3207 (+ 0 (div ?x370 12)))))
(let ((?x1174 (+ ?x2731 ?x2647)))
(let (($x1327 (or (and (= (mod ?x1174 4) 0) (and (distinct (mod ?x1174 100) 0) true)) (= (mod ?x1174 400) 0))))
(let ((?x3364 (ite (= 2 ?x3069) (ite $x1327 31 31) (ite (= 1 ?x3069) (ite $x1327 0 0) 0))))
(let ((?x1154 (ite (= 4 ?x3069) (ite $x1327 91 90) (ite (= 3 ?x3069) (ite $x1327 60 59) ?x3364))))
(let ((?x1183 (ite (= 6 ?x3069) (ite $x1327 152 151) (ite (= 5 ?x3069) (ite $x1327 121 120) ?x1154))))
(let ((?x1357 (ite (= 8 ?x3069) (ite $x1327 213 212) (ite (= 7 ?x3069) (ite $x1327 182 181) ?x1183))))
(let ((?x285 (ite (= 10 ?x3069) (ite $x1327 274 273) (ite (= 9 ?x3069) (ite $x1327 244 243) ?x1357))))
(let ((?x1071 (ite (= 12 ?x3069) (ite $x1327 335 334) (ite (= 11 ?x3069) (ite $x1327 305 304) ?x285))))
(let ((?x3256 (- (+ (* 365 (- ?x1174 1)) (div (- ?x1174 1) 4)) (div (- ?x1174 1) 100))))
(let ((?x767 (- (+ (+ (+ ?x3256 (div (- ?x1174 1) 400)) ?x1071) (- ?x2947 1)) ?x97)))
(let ((?x766 (+ (+ ?x767 ?x2643) ?x97)))
(let ((?x934 (mod ?x766 146097)))
(let ((?x1979 (div ?x934 36524)))
(let ((?x2230 (ite (<= 4 ?x1979) 3 ?x1979)))
(let ((?x2163 (- ?x934 (* ?x2230 36524))))
(let ((?x244 (mod ?x2163 1461)))
(let ((?x439 (div ?x244 365)))
(let ((?x1750 (ite (<= 4 ?x439) 3 ?x439)))
(let ((?x506 (+ (+ (* (div ?x766 146097) 400) (* ?x2230 100)) (* (div ?x2163 1461) 4))))
(let ((?x1083 (+ (+ ?x506 ?x1750) 1)))
(let (($x3355 (or (and (= (mod ?x1083 4) 0) (and (distinct (mod ?x1083 100) 0) true)) (= (mod ?x1083 400) 0))))
(let ((?x2017 (- ?x244 (* ?x1750 365))))
(let ((?x2186 (ite $x3355 31 31)))
(let (($x663 (>= ?x2017 ?x2186)))
(let ((?x443 (ite $x663 (+ (- ?x2017 ?x2186) 1) (+ (- ?x2017 (ite $x3355 0 0)) 1))))
(let ((?x745 (ite $x3355 60 59)))
(let (($x1984 (>= ?x2017 ?x745)))
(let ((?x2874 (ite $x3355 91 90)))
(let (($x1143 (>= ?x2017 ?x2874)))
(let ((?x207 (ite $x1143 (+ (- ?x2017 ?x2874) 1) (ite $x1984 (+ (- ?x2017 ?x745) 1) ?x443))))
(let ((?x2514 (ite $x3355 121 120)))
(let (($x3046 (>= ?x2017 ?x2514)))
(let ((?x2638 (ite $x3355 152 151)))
(let (($x2072 (>= ?x2017 ?x2638)))
(let ((?x1182 (ite $x2072 (+ (- ?x2017 ?x2638) 1) (ite $x3046 (+ (- ?x2017 ?x2514) 1) ?x207))))
(let ((?x1026 (ite $x3355 182 181)))
(let (($x646 (>= ?x2017 ?x1026)))
(let ((?x1624 (ite $x3355 213 212)))
(let (($x752 (>= ?x2017 ?x1624)))
(let ((?x1150 (ite $x752 (+ (- ?x2017 ?x1624) 1) (ite $x646 (+ (- ?x2017 ?x1026) 1) ?x1182))))
(let ((?x2886 (ite $x3355 244 243)))
(let (($x486 (>= ?x2017 ?x2886)))
(let ((?x615 (ite $x3355 274 273)))
(let (($x350 (>= ?x2017 ?x615)))
(let ((?x1063 (ite $x350 (+ (- ?x2017 ?x615) 1) (ite $x486 (+ (- ?x2017 ?x2886) 1) ?x1150))))
(let ((?x389 (ite $x3355 305 304)))
(let (($x442 (>= ?x2017 ?x389)))
(let ((?x138 (ite $x3355 335 334)))
(let (($x754 (>= ?x2017 ?x138)))
(let ((?x2475 (ite $x754 (+ (- ?x2017 ?x138) 1) (ite $x442 (+ (- ?x2017 ?x389) 1) ?x1063))))
(let (($x444 (= 0 0)))
(let (($x675 (and (= (mod (ite $x444 ?x2731 ?x1083) 4) 0) (and (distinct (mod (ite $x444 ?x2731 ?x1083) 100) 0) true))))
(let (($x388 (or $x675 (= (mod (ite $x444 ?x2731 ?x1083) 400) 0))))
(let ((?x1761 (ite $x3046 5 (ite $x1143 4 (ite $x1984 3 (ite $x663 2 1))))))
(let ((?x228 (ite $x486 9 (ite $x752 8 (ite $x646 7 (ite $x2072 6 ?x1761))))))
(let ((?x780 (ite $x444 ?x3069 (ite $x754 12 (ite $x442 11 (ite $x350 10 ?x228))))))
(let ((?x424 (ite (= 2 ?x780) (ite $x388 31 31) (ite (= 1 ?x780) (ite $x388 0 0) 0))))
(let ((?x560 (ite (= 4 ?x780) (ite $x388 91 90) (ite (= 3 ?x780) (ite $x388 60 59) ?x424))))
(let ((?x312 (ite (= 6 ?x780) (ite $x388 152 151) (ite (= 5 ?x780) (ite $x388 121 120) ?x560))))
(let ((?x639 (ite (= 8 ?x780) (ite $x388 213 212) (ite (= 7 ?x780) (ite $x388 182 181) ?x312))))
(let ((?x2129 (ite (= 10 ?x780) (ite $x388 274 273) (ite (= 9 ?x780) (ite $x388 244 243) ?x639))))
(let ((?x483 (ite (= 12 ?x780) (ite $x388 335 334) (ite (= 11 ?x780) (ite $x388 305 304) ?x2129))))
(let ((?x2800 (+ (* 365 (- (ite $x444 ?x2731 ?x1083) 1)) (div (- (ite $x444 ?x2731 ?x1083) 1) 4))))
(let ((?x1394 (+ (- ?x2800 (div (- (ite $x444 ?x2731 ?x1083) 1) 100)) (div (- (ite $x444 ?x2731 ?x1083) 1) 400))))
(= (- (+ (+ ?x1394 ?x483) (- (ite $x444 ?x2947 ?x2475) 1)) ?x97) 6938)))))))))))))))))))))))))))))))))))))))))))))))))))))))))))))))))))))))))))))))))))))))))))))))))))))))))))))))))))))))))))))))))))))))
(check-sat)
